data;


param d:= 100;
param r:=5;
param p:=0.760000;
param M:=1000;
param U:=
         1         1        1.805850e-01
         2         1        5.054647e-01
         3         1        8.277016e-01
         4         1       -7.905118e-01
         5         1        5.436900e-01
         6         1       -5.540489e-01
         7         1        6.302861e-01
         8         1        7.462782e-01
         9         1        2.207669e-01
        10         1        5.840267e-01
        11         1        3.779900e-01
        12         1        6.790115e-01
        13         1        3.509009e-01
        14         1        1.605730e+00
        15         1        7.050059e-01
        16         1       -2.107307e+00
        17         1       -1.227485e+00
        18         1       -1.632348e+00
        19         1       -5.751471e-01
        20         1        6.020840e-01
        21         1       -1.342682e+00
        22         1        9.939983e-01
        23         1       -5.482201e-01
        24         1        5.706364e-01
        25         1       -1.968513e+00
        26         1        7.095652e-01
        27         1        4.683790e-01
        28         1       -1.515231e+00
        29         1        2.012428e-01
        30         1        5.329723e-02
        31         1       -3.153814e-01
        32         1       -3.825851e-01
        33         1       -4.570558e-01
        34         1        3.154115e-01
        35         1        4.625875e-01
        36         1       -1.330619e-01
        37         1        9.403628e-01
        38         1       -1.264932e-01
        39         1       -3.616344e-01
        40         1        1.308668e+00
        41         1        1.634170e-01
        42         1       -1.372841e+00
        43         1       -6.022485e-01
        44         1        7.397060e-01
        45         1       -1.693820e-01
        46         1        8.822569e-02
        47         1        1.753147e+00
        48         1        1.203213e+00
        49         1        5.863997e-01
        50         1        8.523824e-01
        51         1        5.155305e-01
        52         1       -2.427129e-01
        53         1        4.841242e-01
        54         1        8.355578e-01
        55         1       -1.341407e+00
        56         1       -6.975773e-01
        57         1       -4.829243e-01
        58         1        1.095626e+00
        59         1        1.196105e+00
        60         1       -9.881194e-02
        61         1       -2.150384e+00
        62         1        6.583671e-01
        63         1       -1.065853e+00
        64         1       -1.938707e+00
        65         1        2.331423e-02
        66         1       -2.836525e-01
        67         1        8.345768e-01
        68         1        9.212473e-01
        69         1       -2.928382e-01
        70         1        8.002037e-03
        71         1       -1.564626e-01
        72         1        8.795720e-01
        73         1       -3.686487e-01
        74         1        2.004657e+00
        75         1       -3.415804e-01
        76         1        7.348776e-01
        77         1       -1.809308e-01
        78         1        2.110157e+00
        79         1        2.616383e-01
        80         1       -3.781728e-01
        81         1       -1.914229e-01
        82         1        7.549780e-01
        83         1        9.930682e-01
        84         1        5.031035e-01
        85         1        7.951349e-02
        86         1       -1.952806e-01
        87         1       -6.659619e-01
        88         1        1.772971e+00
        89         1        1.267231e-01
        90         1        6.073254e-01
        91         1       -6.357527e-01
        92         1        7.283633e-02
        93         1        4.643601e-01
        94         1        1.121201e+00
        95         1       -3.215904e-01
        96         1        7.429439e-01
        97         1        1.430584e+00
        98         1       -8.400561e-02
        99         1       -7.964027e-01
       100         1        2.038472e-01
         1         2       -1.118580e+00
         2         2        9.142664e-01
         3         2        2.231548e-01
         4         2        1.155686e+00
         5         2        5.956997e-01
         6         2       -1.450474e+00
         7         2        1.520823e+00
         8         2       -6.091745e-01
         9         2       -1.753155e+00
        10         2       -2.494150e+00
        11         2       -6.140710e-01
        12         2        7.171055e-01
        13         2        9.483260e-01
        14         2        5.645641e-01
        15         2       -4.048063e-01
        16         2       -6.410693e-01
        17         2        7.478076e-01
        18         2       -1.251774e+00
        19         2       -2.158074e-01
        20         2        4.076404e-01
        21         2       -6.012940e-02
        22         2       -5.901273e-01
        23         2       -1.072957e+00
        24         2       -5.608195e-01
        25         2       -1.284501e+00
        26         2        1.510347e+00
        27         2       -1.193818e+00
        28         2        9.540752e-01
        29         2       -8.747832e-01
        30         2        7.915785e-01
        31         2        8.740857e-01
        32         2        1.119096e+00
        33         2        6.843779e-01
        34         2        5.253348e-02
        35         2        3.398674e-01
        36         2        6.696461e-01
        37         2       -2.418606e-01
        38         2        1.145907e+00
        39         2        1.346053e-01
        40         2        1.535945e+00
        41         2        5.959376e-01
        42         2       -6.507957e-01
        43         2        1.165921e+00
        44         2        1.147543e-01
        45         2        1.530933e+00
        46         2       -1.432554e+00
        47         2        3.493001e-02
        48         2       -6.311783e-01
        49         2       -9.137132e-01
        50         2       -8.156930e-01
        51         2        1.092508e+00
        52         2        1.130330e+00
        53         2        1.232614e+00
        54         2        3.480402e-01
        55         2       -2.017625e-01
        56         2       -1.941265e+00
        57         2       -1.666971e+00
        58         2        8.709165e-01
        59         2        3.043196e-01
        60         2       -1.527292e+00
        61         2       -9.711032e-01
        62         2        1.052856e-01
        63         2        2.236230e-01
        64         2        2.020836e+00
        65         2        1.723014e-01
        66         2        1.295636e+00
        67         2       -6.116187e-01
        68         2       -1.558806e+00
        69         2       -1.025591e+00
        70         2        6.858901e-01
        71         2        2.591780e-03
        72         2        2.131427e+00
        73         2        1.608552e+00
        74         2       -9.475225e-02
        75         2        3.062044e-01
        76         2       -1.163787e+00
        77         2       -1.187262e+00
        78         2       -4.670633e-02
        79         2       -5.274229e-01
        80         2       -8.923168e-02
        81         2        8.879469e-01
        82         2        1.028058e+00
        83         2       -9.385436e-01
        84         2       -1.537243e+00
        85         2       -1.213760e+00
        86         2       -2.042875e+00
        87         2       -1.367965e-01
        88         2        2.146349e-02
        89         2        4.250574e-01
        90         2        1.796633e-02
        91         2        2.544638e+00
        92         2        6.810104e-01
        93         2       -9.289255e-01
        94         2        2.342328e-01
        95         2       -1.367718e+00
        96         2       -8.469757e-01
        97         2        2.385122e+00
        98         2       -2.084443e-01
        99         2        1.616458e-01
       100         2       -1.042295e+00
         1         3        9.204002e-01
         2         3       -4.614945e-01
         3         3       -1.182399e+00
         4         3       -4.468112e-01
         5         3        1.538501e+00
         6         3        1.348786e+00
         7         3        5.281186e-01
         8         3       -1.348320e+00
         9         3       -1.568745e-01
        10         3        1.215993e+00
        11         3        3.956422e-01
        12         3       -1.213356e+00
        13         3        1.867508e+00
        14         3       -1.325602e-01
        15         3       -8.364357e-01
        16         3        5.808801e-01
        17         3        8.848572e-01
        18         3        1.223443e+00
        19         3        6.245142e-01
        20         3       -1.487256e+00
        21         3       -1.388052e+00
        22         3        3.686712e-01
        23         3        5.308084e-01
        24         3        1.812327e+00
        25         3       -7.337843e-01
        26         3       -1.550557e+00
        27         3       -5.133374e-01
        28         3       -6.077878e-02
        29         3       -2.387879e-01
        30         3       -5.769234e-01
        31         3        1.546343e+00
        32         3        5.845761e-01
        33         3        1.399024e+00
        34         3        6.990544e-01
        35         3        1.871972e+00
        36         3       -9.673100e-01
        37         3        2.939426e-01
        38         3        5.743567e-01
        39         3       -3.625254e-01
        40         3       -9.149024e-01
        41         3       -4.903566e-02
        42         3       -9.531444e-01
        43         3       -1.537672e+00
        44         3       -5.510015e-02
        45         3        7.841613e-01
        46         3       -6.899019e-01
        47         3        9.330516e-01
        48         3       -1.853489e-01
        49         3        2.860505e-01
        50         3        1.127202e+00
        51         3       -1.407758e+00
        52         3        1.085102e+00
        53         3        1.387709e+00
        54         3        1.869778e-01
        55         3       -8.269684e-01
        56         3       -1.365719e+00
        57         3       -2.980282e-01
        58         3        1.164719e+00
        59         3       -6.403672e-01
        60         3        3.213606e-01
        61         3        1.829532e+00
        62         3        7.500751e-01
        63         3        1.134459e+00
        64         3        1.779999e+00
        65         3       -1.103681e+00
        66         3       -3.033296e-01
        67         3        1.359229e+00
        68         3       -7.486113e-01
        69         3        6.070426e-01
        70         3       -6.455915e-02
        71         3       -4.161342e-01
        72         3        2.298229e+00
        73         3       -3.137883e+00
        74         3        1.252825e+00
        75         3        2.352483e-01
        76         3        1.093162e+00
        77         3       -9.860874e-02
        78         3        3.314706e-01
        79         3       -1.554764e+00
        80         3        1.144337e+00
        81         3        5.320718e-01
        82         3       -4.437535e-01
        83         3       -1.851182e+00
        84         3       -1.572386e+00
        85         3        7.093467e-01
        86         3       -6.755433e-01
        87         3       -5.339440e-01
        88         3        4.614308e-01
        89         3       -3.552329e-01
        90         3        3.395031e-01
        91         3       -3.094513e-01
        92         3        5.638011e-01
        93         3       -8.856945e-02
        94         3       -7.756230e-01
        95         3       -1.730899e+00
        96         3       -8.295310e-01
        97         3        7.832928e-01
        98         3        1.828115e+00
        99         3        5.998258e-01
       100         3        5.408921e-01
         1         4       -7.872920e-02
         2         4       -8.455503e-01
         3         4        1.086125e+00
         4         4        2.102120e-01
         5         4        4.661918e-01
         6         4        2.299061e-01
         7         4       -5.717250e-01
         8         4       -1.078549e-01
         9         4        1.225014e+00
        10         4        6.699235e-01
        11         4       -9.416070e-01
        12         4        2.093111e-01
        13         4        6.384335e-02
        14         4        7.388713e-01
        15         4       -9.166581e-01
        16         4       -8.559525e-01
        17         4       -1.398448e+00
        18         4        3.977041e-01
        19         4       -1.296950e+00
        20         4        2.910692e-02
        21         4       -1.104447e+00
        22         4        1.232483e+00
        23         4       -1.111237e+00
        24         4        4.393549e-01
        25         4       -4.602254e-01
        26         4        4.283031e-01
        27         4       -7.786046e-01
        28         4        6.507533e-02
        29         4        3.317120e-01
        30         4       -5.225343e-02
        31         4        4.466226e-02
        32         4       -6.930441e-01
        33         4       -1.201280e+00
        34         4        7.355658e-01
        35         4       -1.783305e+00
        36         4       -4.623489e-02
        37         4        2.529738e+00
        38         4        4.080842e-02
        39         4        4.300684e-02
        40         4       -1.415784e+00
        41         4       -5.214745e-01
        42         4        7.505729e-01
        43         4       -1.477825e+00
        44         4       -1.372965e+00
        45         4        4.517292e-01
        46         4        2.854351e-01
        47         4        1.312053e+00
        48         4       -2.705571e+00
        49         4        2.496900e-01
        50         4       -1.632164e+00
        51         4        2.340200e+00
        52         4        1.173481e+00
        53         4        4.310273e-01
        54         4       -5.805277e-01
        55         4        1.294402e+00
        56         4       -1.224544e-01
        57         4        3.833693e-02
        58         4       -6.579314e-01
        59         4        6.220402e-01
        60         4       -1.911465e+00
        61         4       -2.355373e+00
        62         4       -8.233745e-01
        63         4       -4.636610e-01
        64         4        1.233867e-01
        65         4       -4.060496e-01
        66         4        3.196561e-02
        67         4        1.812785e+00
        68         4        1.716085e+00
        69         4        5.524369e-01
        70         4       -1.893686e-01
        71         4       -1.931929e+00
        72         4        1.253173e+00
        73         4       -5.810777e-03
        74         4        4.491182e-01
        75         4       -1.617892e+00
        76         4       -1.154889e-01
        77         4        3.476040e-01
        78         4       -1.595488e-01
        79         4        5.218804e-01
        80         4       -4.965023e-01
        81         4       -3.498230e-01
        82         4        8.685420e-01
        83         4        3.047539e-01
        84         4       -2.452917e-01
        85         4        1.182838e-02
        86         4       -2.439787e-01
        87         4       -1.992073e+00
        88         4       -5.945415e-01
        89         4       -9.663702e-02
        90         4       -1.008594e+00
        91         4        4.136527e-01
        92         4       -4.671563e-02
        93         4        4.568765e-01
        94         4       -4.581807e-02
        95         4        1.078381e+00
        96         4       -3.659805e-01
        97         4       -6.102259e-01
        98         4       -7.393255e-01
        99         4        6.442660e-02
       100         4        9.510368e-01
         1         5       -2.631994e-01
         2         5       -2.089591e-01
         3         5       -1.782378e+00
         4         5       -1.879898e+00
         5         5       -2.613808e-01
         6         5        1.641697e-01
         7         5       -2.998488e-01
         8         5       -2.510009e-01
         9         5        1.401408e+00
        10         5       -5.203728e-01
        11         5        2.395721e-01
        12         5        1.915732e+00
        13         5        1.351475e+00
        14         5       -1.025350e-01
        15         5        1.269019e+00
        16         5        1.204107e+00
        17         5       -5.730146e-01
        18         5       -1.405803e+00
        19         5        8.395948e-01
        20         5       -1.878653e-01
        21         5       -1.621775e-01
        22         5       -5.624873e-01
        23         5       -1.142394e-01
        24         5        1.283971e+00
        25         5       -9.558275e-01
        26         5       -1.201312e+00
        27         5        1.714815e+00
        28         5       -2.230946e-01
        29         5        1.900594e+00
        30         5        1.200738e-01
        31         5        5.110164e-01
        32         5        3.450699e-01
        33         5       -6.772190e-01
        34         5        9.077862e-01
        35         5        8.371665e-01
        36         5        1.533523e-01
        37         5        1.609928e-01
        38         5       -8.947678e-01
        39         5       -2.319790e-01
        40         5       -9.106955e-03
        41         5        8.640404e-01
        42         5        7.257537e-01
        43         5        1.025202e-02
        44         5        4.003583e-01
        45         5       -2.348624e-01
        46         5        6.816929e-01
        47         5       -5.121088e-01
        48         5        1.378447e+00
        49         5        3.390053e-02
        50         5       -5.133820e-01
        51         5        5.475878e-01
        52         5       -9.820793e-01
        53         5       -1.922341e+00
        54         5        2.254956e+00
        55         5        2.193278e-03
        56         5        9.843348e-01
        57         5       -6.744239e-01
        58         5       -5.156329e-01
        59         5        1.580801e-02
        60         5       -3.546521e-01
        61         5        1.105748e+00
        62         5       -1.232841e+00
        63         5        3.511171e-01
        64         5       -1.883154e+00
        65         5       -8.592372e-01
        66         5       -5.711041e-01
        67         5       -1.272724e+00
        68         5        1.195600e-01
        69         5       -7.854667e-01
        70         5        1.535360e+00
        71         5       -5.880669e-01
        72         5        6.181351e-01
        73         5       -8.592731e-01
        74         5       -1.615773e+00
        75         5        7.394336e-01
        76         5        4.437465e-02
        77         5        5.959724e-01
        78         5        6.724534e-01
        79         5       -4.467853e-01
        80         5       -8.055220e-02
        81         5       -8.723014e-01
        82         5        1.202647e+00
        83         5       -1.644445e+00
        84         5        1.484890e+00
        85         5        2.991563e-01
        86         5        5.587822e-01
        87         5       -1.040625e+00
        88         5        1.453988e+00
        89         5        8.034867e-01
        90         5       -7.863699e-01
        91         5        4.383615e-01
        92         5       -1.470540e+00
        93         5        4.314863e-01
        94         5        2.327180e+00
        95         5        1.031947e+00
        96         5       -3.092698e-02
        97         5       -8.948808e-03
        98         5        8.730825e-01
        99         5       -1.681826e+00
       100         5       -1.139563e+00
;

param theta:=
    1       -2.603227e-01
    2        2.866948e-01
    3        1.310815e+00
    4        1.857987e-01
    5        1.035910e+00
;
param X_true:=
    1        5.514944e-01
    2       -8.479673e-01
    3       -3.345980e+00
    4       -1.956917e+00
    5        1.861790e+00
    6        1.709179e+00
    7        5.473581e-01
    8       -2.416372e+00
    9        9.136140e-01
   10        3.122577e-01
   11        3.173892e-01
   12        4.617580e-01
   13        4.040358e+00
   14       -3.988478e-01
   15       -2.517223e-01
   16        2.214526e+00
   17        8.403976e-01
   18        2.873760e-01
   19        1.535248e+00
   20       -2.178589e+00
   21       -1.860394e+00
   22       -2.983793e-01
   23        2.060866e-01
   24        3.478001e+00
   25       -1.893327e+00
   26       -2.949074e+00
   27        4.946483e-01
   28        3.692926e-01
   29        1.414285e+00
   30       -4.284959e-01
   31        2.897332e+00
   32        1.415400e+00
   33        1.224317e+00
   34        1.926335e+00
   35        2.966718e+00
   36       -8.910726e-01
   37        7.079624e-01
   38        1.950135e-01
   39       -5.747902e-01
   40       -1.372081e+00
   41        8.622130e-01
   42       -1.873234e-01
   43       -1.788519e+00
   44       -7.224879e-02
   45        1.351530e+00
   46       -5.788011e-01
   47        4.899676e-01
   48        1.881176e-01
   49        4.185931e-02
   50        1.867329e-01
   51       -6.642404e-01
   52        1.010297e+00
   53        1.350987e-01
   54        2.355430e+00
   55       -5.498780e-01
   56       -1.168230e+00
   57       -1.434375e+00
   58        8.348098e-01
   59       -9.315794e-01
   60       -7.134344e-01
   61        3.387391e+00
   62       -5.880867e-01
   63        2.106221e+00
   64        1.489449e+00
   65       -2.368929e+00
   66       -5.379888e-01
   67        4.074769e-01
   68       -1.225314e+00
   69       -1.331091e-01
   70        1.665242e+00
   71       -1.472135e+00
   72        4.267820e+00
   73       -4.447263e+00
   74       -4.971499e-01
   75        9.504596e-01
   76        9.324872e-01
   77        2.594186e-01
   78        5.387415e-01
   79       -2.623192e+00
   80        1.397185e+00
   81        3.322712e-02
   82        9.237305e-01
   83       -4.601024e+00
   84       -1.140159e+00
   85        8.732411e-01
   86       -8.868410e-01
   87       -2.013873e+00
   88        1.545195e+00
   89        4.376129e-01
   90       -7.099276e-01
   91        1.020361e+00
   92       -6.167062e-01
   93        2.856819e-02
   94        1.160816e+00
   95       -1.307923e+00
   96       -1.623627e+00
   97        1.215491e+00
   98        3.125499e+00
   99       -6.903240e-01
  100       -6.466607e-01
;
param X:=
    1       -2.311574e-01
    2        1.922377e+00
    3        4.438236e-01
    4       -2.614632e-01
    5        5.137223e-01
    6       -2.192297e-01
    7        1.503167e+00
    8        5.546815e-01
    9        9.068728e-01
   10       -2.444405e+00
   11        4.621823e-01
   12        2.019974e+00
   13       -1.076931e-01
   14       -1.722432e+00
   15        8.179683e-01
   16       -1.375248e+00
   17        8.403976e-01
   18       -3.326712e-01
   19        5.366984e-01
   20        5.434485e-01
   21       -1.222709e+00
   22       -5.992465e-01
   23        2.060866e-01
   24        1.230526e+00
   25       -1.893327e+00
   26       -2.949074e+00
   27       -5.049378e-01
   28       -1.790907e+00
   29        1.849310e-01
   30        1.275028e+00
   31        2.796604e-01
   32        1.415400e+00
   33        6.884365e-01
   34       -2.411998e+00
   35       -4.648782e-01
   36        2.479318e+00
   37        1.759500e+00
   38        8.107809e-02
   39        1.267002e+00
   40       -1.372081e+00
   41        9.310848e-01
   42       -1.307595e+00
   43        1.206302e+00
   44       -7.224879e-02
   45       -2.229134e-01
   46       -5.788011e-01
   47        4.899676e-01
   48        2.322273e-01
   49       -2.408254e-01
   50        1.867329e-01
   51       -8.149514e-01
   52        1.010297e+00
   53        3.241276e-01
   54        2.916578e-01
   55       -5.498780e-01
   56       -1.168230e+00
   57       -1.659583e-01
   58       -2.123276e+00
   59       -9.315794e-01
   60        3.647847e-01
   61        6.728138e-01
   62       -3.787629e-01
   63        5.478127e-01
   64       -1.413785e+00
   65       -2.368929e+00
   66       -5.379888e-01
   67       -5.508188e-01
   68        1.500406e+00
   69       -6.894215e-02
   70       -9.109729e-01
   71       -1.472135e+00
   72       -4.013781e-02
   73        8.598741e-01
   74       -1.891927e+00
   75        9.504596e-01
   76        9.324872e-01
   77       -6.612574e-01
   78        1.149266e+00
   79       -2.623192e+00
   80        1.022140e+00
   81        1.372529e+00
   82       -5.965450e-02
   83        8.319379e-01
   84        1.074209e+00
   85        8.043861e-01
   86        2.217509e-01
   87       -2.041433e+00
   88       -1.234941e+00
   89        4.376129e-01
   90       -7.099276e-01
   91        3.837050e-01
   92       -9.641201e-01
   93        2.856819e-02
   94       -1.609373e+00
   95       -7.362976e-01
   96        3.255971e-02
   97        1.215491e+00
   98        1.427297e+00
   99       -1.306152e-01
  100       -1.349414e+00
;
param outliervec:=
    1    1
    2    1
    3    1
    4    1
    5    1
    6    1
    7    1
    8    1
    9    1
   10    1
   11    1
   12    1
   13    1
   14    1
   15    1
   16    1
   17    0
   18    1
   19    1
   20    1
   21    1
   22    1
   23    0
   24    1
   25    0
   26    0
   27    1
   28    1
   29    1
   30    1
   31    1
   32    0
   33    1
   34    1
   35    1
   36    1
   37    1
   38    1
   39    1
   40    0
   41    1
   42    1
   43    1
   44    0
   45    1
   46    0
   47    0
   48    1
   49    1
   50    0
   51    1
   52    0
   53    1
   54    1
   55    0
   56    0
   57    1
   58    1
   59    0
   60    1
   61    1
   62    1
   63    1
   64    1
   65    0
   66    0
   67    1
   68    1
   69    1
   70    1
   71    0
   72    1
   73    1
   74    1
   75    0
   76    0
   77    1
   78    1
   79    0
   80    1
   81    1
   82    1
   83    1
   84    1
   85    1
   86    1
   87    1
   88    1
   89    0
   90    0
   91    1
   92    1
   93    0
   94    1
   95    1
   96    1
   97    0
   98    1
   99    1
  100    1
;